%chk=h2_hf_sto6g.chk
#p hf/sto-6g units=Angstrom IOP(3/33=5)

 H2 hf/sto-6g

0 1
H 0.0 0.0 -0.371000000
H 0.0 0.0  0.371000000


